; benchmark generated from python API
(set-info :status unknown)
(declare-datatypes ((RealState 0)) (((RMk1 (rval1 Real)) (RMk2 (rval2 Real)))))
 (assert
 (forall ((|v17:0| Real) )(forall ((|v16:1| Real) )(forall ((|v15:2| Real) )(forall ((|v14:3| Real) )(forall ((|v13:4| Real) )(forall ((|v12:5| Real) )(exists ((|v11:6_st| RealState) (val!8526 Real) )(exists ((|v10:7_st| RealState) (val!8527 Real) )(exists ((|v9:8_st| RealState) (val!8528 Real) )(exists ((|v8:9_st| RealState) (val!8529 Real) )(exists ((|v7:10_st| RealState) (val!8530 Real) )(exists ((|v6:11_st| RealState) (val!8531 Real) )(forall ((|v5:12| Real) )(forall ((|v4:13| Real) )(forall ((|v3:14| Real) )(forall ((|v2:15| Real) )(forall ((|v1:16| Real) )(forall ((|v0:17| Real) )(let ((?x2467 (* 17.0 |v16:1|)))
 (let ((?x1205 (+ (+ (+ (* 11.0 |v2:15|) (* 14.0 (rval2 |v6:11_st|))) (* 13.0 |v3:14|)) ?x2467)))
 (let ((?x1646 (- 17.0)))
 (let ((?x2673 (- 12.0)))
 (let ((?x1717 (* ?x2673 |v17:0|)))
 (let ((?x2074 (+ (+ (+ (* 18.0 (rval2 |v7:10_st|)) (* (- 3.0) |v0:17|)) (* 8.0 |v4:13|)) ?x1717)))
 (let ((?x524 (+ (+ (+ (* (- 1.0) (rval2 |v10:7_st|)) (* 13.0 |v16:1|)) (* 8.0 |v16:1|)) (* 18.0 |v17:0|))))
 (let ((?x2910 (- 6.0)))
 (let ((?x85 (* 13.0 |v15:2|)))
 (let ((?x162 (+ (+ (* (- 20.0) |v17:0|) (* 4.0 |v12:5|)) (* (- 10.0) (rval2 |v9:8_st|)))))
 (let ((?x2457 (* 13.0 |v3:14|)))
 (let ((?x2976 (+ (+ (+ (* 18.0 |v0:17|) (* (- 14.0) |v3:14|)) (* 3.0 (rval2 |v6:11_st|))) ?x2457)))
 (let ((?x1977 (+ (+ (+ (* 20.0 (rval2 |v10:7_st|)) (* 12.0 |v12:5|)) (* 6.0 |v5:12|)) (* (- 11.0) |v17:0|))))
 (let ((?x3131 (rval2 |v9:8_st|)))
 (let ((?x1408 (* 0.0 ?x3131)))
 (let ((?x1759 (+ (+ (+ (* (- 15.0) ?x3131) (* 2.0 |v1:16|)) (* 7.0 ?x3131)) ?x1408)))
 (let (($x1197 (or (and (<= ?x1759 2.0) (<= ?x1977 5.0)) (and (<= ?x2976 9.0) (<= (+ ?x162 ?x85) ?x2910)))))
 (let (($x2370 (or $x1197 (and (and (<= ?x524 18.0) (<= ?x2074 ?x1646)) (<= ?x1205 19.0)))))
 (let ((?x1292 (- 13.0)))
 (let ((?x3061 (+ (+ (+ (* 13.0 |v13:4|) (* 19.0 |v1:16|)) (* 12.0 |v15:2|)) (* 0.0 |v17:0|))))
 (let ((?x3422 (* 9.0 ?x3131)))
 (let ((?x1632 (- 4.0)))
 (let ((?x632 (* ?x1632 |v1:16|)))
 (let (($x3258 (<= (+ (+ (+ (* (- 5.0) (rval2 |v8:9_st|)) (* 9.0 |v13:4|)) ?x632) ?x3422) 4.0)))
 (let ((?x361 (- 7.0)))
 (let ((?x3354 (- 16.0)))
 (let ((?x1641 (* ?x3354 |v1:16|)))
 (let ((?x2650 (+ (+ (* ?x3354 (rval2 |v6:11_st|)) (* 4.0 |v15:2|)) (* (- 18.0) (rval2 |v6:11_st|)))))
 (let ((?x3404 (+ (+ (+ (* 16.0 |v1:16|) (* 15.0 |v3:14|)) (* 0.0 (rval2 |v7:10_st|))) ?x1408)))
 (let (($x2923 (and (or (<= ?x3404 20.0) (<= (+ ?x2650 ?x1641) ?x361)) (or $x3258 (<= ?x3061 ?x1292)))))
 (let ((?x964 (- 20.0)))
 (let (($x2830 (<= (+ (+ (+ (* ?x2910 |v5:12|) (* 11.0 |v0:17|)) (* 18.0 |v15:2|)) ?x1408) ?x964)))
 (let ((?x448 (- 10.0)))
 (let ((?x1057 (* 5.0 |v14:3|)))
 (let (($x989 (<= (+ (+ (+ (* (- 11.0) |v1:16|) (* ?x1632 |v17:0|)) (* 0.0 |v1:16|)) ?x1057) ?x448)))
 (let ((?x2470 (rval2 |v7:10_st|)))
 (let ((?x2821 (* 19.0 ?x2470)))
 (let ((?x2844 (* 5.0 |v3:14|)))
 (let ((?x2884 (+ (+ (+ (* (- 8.0) (rval2 |v6:11_st|)) (* 3.0 (rval2 |v6:11_st|))) ?x2844) ?x2821)))
 (let ((?x2394 (* 19.0 |v0:17|)))
 (let ((?x2519 (+ (+ (+ (* ?x1646 |v14:3|) (* 5.0 (rval2 |v8:9_st|))) (* 6.0 |v17:0|)) ?x2394)))
 (let ((?x726 (+ (+ (+ (* ?x2673 |v2:15|) (* 18.0 |v14:3|)) (* ?x2910 ?x2470)) (* (- 5.0) (rval2 |v6:11_st|)))))
 (let (($x2456 (or (and (<= ?x726 ?x3354) (<= ?x2519 15.0)) (and (<= ?x2884 ?x3354) $x989))))
 (let ((?x169 (- 5.0)))
 (let ((?x3118 (* 8.0 |v16:1|)))
 (let ((?x1414 (+ (+ (+ (* 18.0 |v14:3|) (* (- 9.0) |v12:5|)) (* 13.0 (rval2 |v8:9_st|))) ?x3118)))
 (let ((?x3125 (- 15.0)))
 (let ((?x1359 (* ?x3125 |v17:0|)))
 (let ((?x2092 (- 1.0)))
 (let ((?x2619 (* ?x2092 |v3:14|)))
 (let (($x1466 (<= (+ (+ (+ (* (- 19.0) |v13:4|) (* (- 2.0) |v16:1|)) ?x2619) ?x1359) ?x448)))
 (let ((?x657 (* 10.0 |v0:17|)))
 (let ((?x268 (+ (+ (+ (* (- 11.0) |v3:14|) (* 17.0 |v17:0|)) (* ?x3125 (rval2 |v8:9_st|))) ?x657)))
 (let ((?x1003 (+ (+ (+ (* (- 2.0) |v2:15|) (* 0.0 ?x2470)) (* 7.0 (rval2 |v8:9_st|))) (* (- 3.0) ?x2470))))
 (let ((?x2485 (rval2 |v6:11_st|)))
 (let ((?x1603 (* 9.0 ?x2485)))
 (let ((?x1517 (+ (+ (+ (* 10.0 |v15:2|) (* 13.0 |v14:3|)) (* ?x3125 (rval2 |v11:6_st|))) ?x1603)))
 (let ((?x1320 (* 3.0 |v5:12|)))
 (let (($x991 (<= (+ (+ (+ (* ?x361 |v2:15|) (* 6.0 |v17:0|)) (* 15.0 ?x3131)) ?x1320) 4.0)))
 (let ((?x1700 (* 20.0 |v14:3|)))
 (let (($x534 (<= (+ (+ (+ (* 3.0 |v0:17|) (* ?x448 ?x2470)) (* (- 2.0) ?x2485)) ?x1700) 12.0)))
 (let ((?x1429 (* 16.0 |v3:14|)))
 (let (($x2939 (<= (+ (+ (+ (* 6.0 |v12:5|) (* ?x448 |v0:17|)) (* ?x1292 |v4:13|)) ?x1429) ?x1292)))
 (let ((?x2699 (- 9.0)))
 (let ((?x796 (- 8.0)))
 (let ((?x746 (* ?x796 |v15:2|)))
 (let (($x2501 (<= (+ (+ (+ (* 12.0 |v15:2|) (* 19.0 |v3:14|)) (* 14.0 ?x3131)) ?x746) ?x2699)))
 (let ((?x2719 (rval2 |v8:9_st|)))
 (let ((?x2236 (* 7.0 ?x2719)))
 (let (($x3410 (<= (+ (+ (+ (* 16.0 |v5:12|) (* 17.0 |v3:14|)) (* ?x2910 |v13:4|)) ?x2236) ?x1632)))
 (let ((?x241 (+ (+ (* (- 14.0) |v13:4|) (* 4.0 (rval2 |v10:7_st|))) (* 13.0 (rval2 |v11:6_st|)))))
 (let (($x228 (and (or (or (<= (+ ?x241 (* 10.0 |v12:5|)) 10.0) $x3410) (and $x2501 $x2939)) (or (or $x534 $x991) (or (<= ?x1517 11.0) (<= ?x1003 ?x2092))))))
 (let (($x3154 (and $x228 (or (or (<= ?x268 11.0) (and $x1466 (<= ?x1414 ?x169))) $x2456))))
 (let ((?x295 (- 11.0)))
 (let ((?x426 (+ (+ (+ (* 7.0 ?x2470) (* ?x1646 ?x2485)) (* ?x3125 |v13:4|)) (* ?x3354 ?x2470))))
 (let ((?x3055 (- 2.0)))
 (let ((?x2385 (* ?x3055 |v16:1|)))
 (let (($x324 (<= (+ (+ (+ (* ?x3125 |v16:1|) (* ?x361 |v16:1|)) (* 0.0 |v14:3|)) ?x2385) 7.0)))
 (let ((?x2908 (* 14.0 |v13:4|)))
 (let ((?x2101 (+ (+ (+ (* ?x2092 (rval2 |v10:7_st|)) (* 18.0 |v12:5|)) (* ?x796 |v1:16|)) ?x2908)))
 (let ((?x2399 (* 2.0 ?x2485)))
 (let (($x188 (<= (+ (+ (+ (* 14.0 |v5:12|) (* 7.0 |v14:3|)) (* 11.0 |v12:5|)) ?x2399) ?x448)))
 (let ((?x1467 (+ (+ (+ (* 6.0 ?x2485) (* 11.0 |v4:13|)) (* (- 3.0) ?x2485)) (* ?x361 |v14:3|))))
 (let (($x34 (and (and (and (<= ?x1467 ?x1632) $x188) (or (<= ?x2101 ?x295) $x324)) (<= ?x426 ?x295))))
 (let ((?x216 (- 19.0)))
 (let (($x951 (and (<= (+ (+ (+ (* ?x2910 |v3:14|) (* 13.0 |v0:17|)) ?x2844) ?x1359) ?x216) $x34)))
 (let ((?x2587 (* 4.0 |v0:17|)))
 (let (($x151 (<= (+ (+ (+ (* ?x964 |v16:1|) (* 2.0 |v17:0|)) (* ?x1292 |v2:15|)) ?x2587) ?x1646)))
 (let ((?x2184 (* 8.0 |v13:4|)))
 (let (($x2303 (<= (+ (+ (+ (* ?x1292 ?x2719) (* ?x2092 |v14:3|)) (* ?x1632 |v15:2|)) ?x2184) ?x2699)))
 (let ((?x2863 (* 17.0 |v15:2|)))
 (let (($x3282 (<= (+ (+ (+ (* (- 18.0) |v14:3|) (* 12.0 ?x3131)) (* ?x1632 |v14:3|)) ?x2863) 4.0)))
 (let ((?x202 (* 5.0 ?x2719)))
 (let (($x1484 (<= (+ (+ (+ (* 13.0 ?x2485) (* ?x1292 |v2:15|)) (* ?x361 ?x3131)) ?x202) 1.0)))
 (let ((?x2352 (+ (+ (+ (* 13.0 |v17:0|) (* 16.0 |v0:17|)) (* ?x2699 ?x2485)) (* (- 14.0) ?x2485))))
 (let ((?x1293 (* 19.0 |v1:16|)))
 (let (($x803 (<= (+ (+ (+ (* 11.0 |v17:0|) (* ?x295 |v2:15|)) (* 5.0 |v13:4|)) ?x1293) 20.0)))
 (let ((?x1244 (* 15.0 |v3:14|)))
 (let ((?x1946 (+ (+ (+ (* 13.0 |v4:13|) (* 10.0 |v5:12|)) (* ?x3125 (rval2 |v11:6_st|))) ?x1244)))
 (let ((?x742 (* 2.0 |v2:15|)))
 (let (($x3092 (<= (+ (+ (+ (* ?x216 |v3:14|) (* 19.0 |v14:3|)) (* (- 18.0) |v5:12|)) ?x742) ?x448)))
 (let (($x2510 (or (and (and $x3092 (<= ?x1946 ?x796)) (or $x803 (<= ?x2352 ?x2910))) (or (or $x1484 $x3282) (and $x2303 $x151)))))
 (let (($x3364 (<= (+ (+ (+ (* ?x3354 ?x3131) (* ?x295 |v16:1|)) ?x2863) (* ?x3055 |v14:3|)) ?x2092)))
 (let (($x2944 (or (<= (+ (+ (+ (* ?x2673 |v5:12|) ?x1717) |v16:1|) (* ?x295 |v14:3|)) 9.0) $x3364)))
 (let (($x1440 (<= (+ (+ (+ (* ?x361 |v17:0|) (* (- 3.0) |v0:17|)) ?x746) (* 17.0 |v5:12|)) 16.0)))
 (let ((?x3012 (+ (+ (+ (* ?x1292 |v15:2|) (* ?x361 |v17:0|)) (* ?x361 |v12:5|)) (* ?x2699 ?x2719))))
 (let ((?x374 (* ?x1646 |v0:17|)))
 (let ((?x1637 (+ (+ (+ (* ?x361 ?x2485) (* 2.0 (rval2 |v10:7_st|))) (* ?x1292 |v3:14|)) ?x374)))
 (let ((?x688 (* ?x2910 |v5:12|)))
 (let (($x176 (<= (+ (+ (+ (* 10.0 ?x2719) (* ?x796 |v17:0|)) (* 3.0 |v15:2|)) ?x688) 11.0)))
 (let (($x538 (<= (+ (+ (+ ?x657 (* 4.0 ?x2719)) (* 8.0 ?x3131)) (* 20.0 |v2:15|)) ?x1632)))
 (let ((?x348 (* ?x1632 |v15:2|)))
 (let ((?x3280 (+ (+ (+ (* 2.0 |v14:3|) (* 16.0 ?x3131)) (* 5.0 (rval2 |v11:6_st|))) ?x348)))
 (let (($x1587 (or (or (or (<= ?x3280 ?x3125) $x538) (or $x176 (<= ?x1637 ?x2673))) (or (or (<= ?x3012 ?x295) $x1440) $x2944))))
 (let (($x954 (and (and (and $x1587 $x2510) $x951) (and $x3154 (or (and $x2830 $x2923) $x2370)))))
 (let (($x785 (not (= |v6:11_st| (RMk1 val!8531)))))
 (let (($x1017 (not (= |v7:10_st| (RMk1 val!8530)))))
 (let (($x2912 (not (= |v8:9_st| (RMk1 val!8529)))))
 (let (($x2702 (not (= |v9:8_st| (RMk1 val!8528)))))
 (let (($x1978 (not (= |v10:7_st| (RMk1 val!8527)))))
 (let (($x891 (not (= |v11:6_st| (RMk1 val!8526)))))
 (and $x891 $x1978 $x2702 $x2912 $x1017 $x785 $x954)))))))))))))))))))))))))))))))))))))))))))))))))))))))))))))))))))))))))))))))))))))))))))))))))))))))))))))))))))))))))))
 )
 )
 )
 )
 )
 )
 )
 )
 )
 )
 )
 )
 )
 )
 )
 )
 )
 )
(check-sat)
